400
300
239
239
238
237
237
237
235
235
234
233
233
231
231
230
230
230
230
230
230
229
229
228
228
227
226
225
225
224
223
223
223
222
222
221
221
220
219
219
218
218
217
216
215
214
214
214
213
213
213
212
212
211
211
211
210
210
209
208
208
207
207
207
206
205
205
204
204
203
202
202
201
201
200
200
200
198
197
197
197
196
196
195
195
195
194
194
194
194
192
192
191
191
191
191
189
189
188
188
187
186
186
184
184
184
184
183
183
183
182
182
182
181
181
180
179
179
179
178
176
175
174
174
173
172
172
171
169
169
168
167
164
164
163
162
162
162
162
161
161
160
160
159
158
158
157
156
155
152
152
152
151
151
150
150
150
149
149
148
147
147
146
146
145
145
144
144
143
143
142
142
142
142
142
140
140
139
138
137
137
136
136
134
134
134
134
133
133
133
133
133
130
130
130
129
129
129
129
129
128
128
127
127
126
126
126
125
125
124
124
123
123
123
122
122
121
120
119
119
118
118
118
118
118
117
117
116
116
116
115
115
115
115
114
113
113
113
113
112
112
111
111
110
110
109
109
109
109
108
108
108
107
105
105
105
103
103
103
102
102
102
100
100
100
99
99
98
98
98
97
96
96
95
94
93
93
92
92
91
91
90
89
89
88
87
87
86
86
85
85
85
85
85
84
83
83
83
83
83
82
81
81
81
80
80
79
79
77
77
76
76
76
75
74
74
74
74
74
73
72
72
72
71
70
69
68
68
67
67
66
66
66
63
63
63
63
62
62
62
61
61
60
60
60
59
59
58
57
57
57
56
55
55
54
54
54
53
53
53
52
52
51
51
51
50
49
49
49
49
48
48
48
47
47
46
45
45
43
42
42
41
41
41
41
40
40
39
38
38
38
38
37
36
36
33
33
32
31
31
31
30
